30
0   102   101
1   103   101
2   54   54
3   54   54
4   27   26
5   29   26
6   16   16
7   13   16
8   9   8
9   7   9
10   4   4
11   4   4
12   5   3
13   5   2
14   2   4
15   4   2
16   3   2
17   2   4
18   3   1
19   4   1
20   2   3
21   1   3
22   4   2
23   3   3
24   4   4
25   1   4
26   2   4
27   4   2
28   3   3
29   1   4
200
